NAME : n40w180.001.337.tour
COMMENT : Length = 337
COMMENT : Found by LKH [Keld Helsgaun] Tue May  2 05:19:05 2017
TYPE : TOUR
DIMENSION : 41
TOUR_SECTION
1
18
34
12
32
40
22
9
39
19
29
35
25
36
14
3
15
38
37
10
17
24
16
4
21
33
26
6
13
11
27
5
2
7
31
8
23
30
28
41
20
-1
EOF
